50
0 3.7
1 34.3
2 91.2
3 28.8
4 12.2
5 13.9
6 57.5
7 77.3
8 95.5
9 50.3
10 19.5
11 33.9
12 97.9
13 15.3
14 39.9
15 29.9
16 10.5
17 37.9
18 85.8
19 36.6
20 69.2
21 67.2
22 14.5
23 27.6
24 45.2
25 79.9
26 59.4
27 4.1
28 33.3
29 55.5
30 74.9
31 26.6
32 89.7
33 20.6
34 53.1
35 83.5
36 25.2
37 91.7
38 40.3
39 98.2
40 78.3
41 11
42 72.8
43 10.1
44 52.4
45 97.6
46 47.4
47 90.4
48 25.2
49 39.9
